NAME : census.pruned_global_8.-58328991.tour
COMMENT : Length = -58328991
TYPE : TOUR
DIMENSION : 68
TOUR_SECTION
65
60
7
15
31
17
42
14
62
25
35
6
49
64
67
63
8
9
32
47
52
37
34
33
27
66
54
1
3
50
39
2
40
43
38
36
30
29
28
26
24
23
22
21
20
19
18
16
13
11
5
4
10
12
56
41
44
45
46
48
51
53
55
57
58
59
61
68
-1
EOF
